NAME : ft53.tour
COMMENT : Optimum tour for ft53.tsp (Length = 6905)
TYPE : TOUR
DIMENSION : 106
TOUR_SECTION  
25
78
21
74
22
75
41
94
36
89
37
90
39
92
40
93
38
91
16
69
17
70
18
71
3
56
5
58
1
54
31
84
32
85
34
87
33
86
35
88
45
98
46
99
44
97
47
100
43
96
48
101
42
95
15
68
13
66
11
64
12
65
14
67
4
57
27
80
28
81
26
79
29
82
30
83
49
102
51
104
53
106
50
103
52
105
6
59
7
60
8
61
10
63
9
62
2
55
19
72
20
73
23
76
24
77
-1
EOF
